32      4       
10      10      10      10      
0       0       0       0       0       5       2       3       4       5       6       
8       1       1       0       1       4       7       8       9       10      
3       4       3       0       3       3       7       8       10      
4       3       3       0       6       3       7       8       9       
4       7       0       1       2       3       8       9       10      
3       1       6       0       3       2       8       10      
9       0       4       5       6       6       11      12      13      14      15      18      
10      4       5       2       0       5       11      12      13      15      18      
10      5       3       3       0       5       11      12      14      15      18      
1       0       3       3       7       4       11      13      14      18      
3       3       4       0       3       2       16      17      
2       6       2       0       7       2       16      17      
10      5       6       2       0       2       16      17      
5       4       2       6       0       2       16      17      
9       7       3       5       0       2       16      17      
8       6       9       2       0       10      19      20      21      22      23      24      25      26      27      28      
3       5       5       5       0       9       19      20      21      22      23      24      25      28      29      
4       5       3       0       3       9       19      20      21      22      23      24      25      26      27      
3       1       0       4       4       2       30      31      
9       5       2       4       0       2       30      31      
3       0       2       8       5       2       30      31      
5       3       7       0       5       2       30      31      
8       4       0       3       6       2       30      31      
6       0       6       5       1       2       30      31      
2       3       0       3       4       2       30      31      
6       0       3       3       3       2       30      31      
7       2       5       0       3       2       30      31      
9       5       0       8       3       2       30      31      
8       2       2       3       0       2       30      31      
10      0       7       5       3       1       32      
10      5       0       4       6       1       32      
0       0       0       0       0       0       
